c E(3,3) R(3) B(3) E(2,3) R(2) B(2) E(3,2) E(4,3) B(4) R(4) E(3,4) R(0) B(0) E(3,0) E(0,3) B(1) R(1) E(3,1) E(1,3) E(2,2) E(4,2) E(2,4) E(2,0) E(0,2) E(1,2) E(2,1) E(4,4) E(4,0) E(0,4) E(1,4) E(4,1) E(0,0) E(1,0) E(0,1) E(1,1)
c 1 2 3 4 5 6 7 8 9 10 11 12 13 14 15 16 17 18 19 20 21 22 23 24 25 26 27 28 29 30 31 32 33 34 35
p cnf 35 55
-32 0
-35 0
-20 0
-1 0
-27 0
13 12 0
16 17 0
6 5 0
3 2 0
9 10 0
34 -33 0
24 -23 0
15 -14 0
29 -28 0
33 -34 0
25 -26 0
19 -18 0
30 -31 0
23 -24 0
26 -25 0
4 -7 0
22 -21 0
14 -15 0
18 -19 0
7 -4 0
11 -8 0
28 -29 0
31 -30 0
21 -22 0
8 -11 0
-13 -12 0
-16 -17 0
-6 -5 0
-3 -2 0
-9 -10 0
13 16 -33 0
13 6 -23 0
13 3 -14 0
13 9 -28 0
16 6 -26 0
16 3 -18 0
16 9 -31 0
6 3 -7 0
6 9 -21 0
3 9 -8 0
12 17 -33 0
12 5 -23 0
12 2 -14 0
12 10 -28 0
17 5 -26 0
17 2 -18 0
17 10 -31 0
5 2 -7 0
5 10 -21 0
2 10 -8 0
